
(set-logic ALL) 

(declare-datatype MyList ((Nil) (Cons (head Real) (tail MyList)) )) 
(declare-fun l0 () MyList) 
(declare-fun l1 () MyList) 
(declare-fun l2 () MyList) 
(declare-fun l3 () MyList) 
(declare-fun i0 () Real) 
(declare-fun i1 () Real) 
(assert (or (= l3 Nil) (= l3 l3) (= l2 Nil) (= l1 Nil)) )
(assert (not (is-Nil l3)) )
(assert (is-Cons Nil) )
(assert (or (= l2 Nil) (is-Nil Nil) (= l1 l2) (= l1 l0)) )
(assert (or (= l2 Nil) (is-Nil l0) (is-Cons l1)) )
(assert (not (= l1 l3)) )
(assert (not (= l1 Nil)) )
(assert (or (is-Cons Nil) (= l2 Nil)) )
(check-sat)
